;############################### DATA TYPES ###############################
(declare-datatypes (T) ((Item Crash (mk-item (value T)))))
(declare-datatypes (T) ((Vector (mk-vec (size Int) (data (Array Int T))))))
;
